NAME: pr1002
COMMENT: Local search tour for pr1002 (296348.5204903831)
TYPE: TOUR
DIMENSION: 1002
TOUR_SECTION: 1 2 5 3 4 6 7 8 9 10 70 69 68 56 67 66 12 11 14 13 16 15 18 19 20 21 17 22 23 24 25 31 30 26 29 27 28 332 333 334 328 327 329 330 331 314 315 326 324 325 316 319 318 317 320 323 322 321 294 293 295 296 289 290 291 292 402 403 404 288 287 286 285 284 299 300 298 297 991 305 306 307 308 309 310 311 312 313 45 44 46 47 48 43 42 41 49 81 80 79 78 82 83 84 85 87 86 88 89 90 92 91 99 98 93 77 94 95 96 97 134 133 100 101 102 994 107 108 109 110 111 112 115 114 113 304 303 302 301 283 282 281 280 279 278 277 276 275 274 270 259 258 257 256 255 254 253 249 250 247 248 260 261 262 266 265 267 268 269 271 272 273 467 468 469 470 471 472 474 473 459 475 476 477 478 479 480 481 482 998 580 579 578 577 576 575 573 574 572 571 561 560 558 559 592 591 590 589 588 598 599 597 596 595 594 593 557 556 555 554 553 825 824 823 822 821 811 812 820 819 818 814 813 842 897 898 899 900 907 908 1001 810 809 806 805 807 808 798 799 800 804 803 802 801 787 782 777 776 778 779 780 781 783 784 785 786 788 793 794 795 796 797 601 600 602 603 604 605 608 606 607 630 629 611 610 609 612 613 615 616 614 627 628 626 625 992 633 634 635 636 637 638 639 640 641 373 372 371 376 375 374 437 438 439 440 441 632 631 442 443 444 446 445 447 434 433 431 432 453 452 451 450 448 449 585 584 586 587 581 582 583 454 455 456 457 458 428 429 430 997 435 436 461 460 465 466 464 463 462 424 425 426 427 419 420 418 421 422 423 405 406 417 415 413 414 416 410 407 408 409 411 412 377 370 369 378 368 367 366 365 364 363 362 361 360 352 351 350 349 345 344 339 340 391 390 392 393 389 388 386 387 394 395 384 383 385 381 379 380 382 401 399 400 396 397 398 335 336 337 338 342 341 343 346 347 348 354 353 359 358 357 355 356 660 661 662 656 655 657 658 659 642 643 644 653 654 652 647 646 645 648 651 650 649 622 621 623 624 617 618 619 620 730 731 732 792 791 756 789 790 751 752 753 754 755 747 746 748 750 749 733 734 735 738 736 737 739 744 745 743 742 741 740 706 696 695 694 693 692 691 690 689 688 686 687 681 680 679 678 677 673 672 667 668 719 718 720 721 717 716 715 722 723 712 711 713 714 707 709 708 710 729 727 728 724 725 726 663 664 665 666 670 669 671 674 675 676 682 685 683 684 988 989 990 984 983 985 986 987 970 971 972 981 982 980 975 974 973 976 979 978 977 950 949 951 952 948 947 946 945 944 943 942 941 940 939 955 956 954 953 993 961 962 963 964 965 966 967 968 969 701 700 699 698 697 705 704 703 702 765 764 763 1000 757 758 759 760 761 762 774 775 773 772 771 770 768 766 767 769 960 959 958 957 938 937 936 935 934 933 932 931 930 929 928 926 927 925 924 923 921 922 918 917 916 904 915 914 913 912 911 910 909 905 906 903 901 902 919 920 887 888 886 885 884 883 882 881 880 879 878 877 874 875 876 870 871 872 869 868 873 867 866 865 864 863 862 861 859 860 856 855 854 857 853 850 849 848 846 847 893 892 891 890 889 896 894 895 845 844 843 851 852 858 1002 838 833 832 831 834 830 829 835 836 837 839 840 841 815 816 817 828 827 826 541 542 543 544 540 545 546 547 548 552 551 550 549 562 563 564 565 519 518 520 521 517 516 567 566 568 570 569 514 515 522 523 524 530 525 529 526 527 528 536 537 539 538 535 533 534 532 531 999 506 505 504 503 501 502 507 508 509 510 511 512 513 485 484 483 493 494 497 496 495 492 491 490 486 487 488 489 500 499 498 214 215 216 213 212 217 211 210 209 208 207 205 203 204 206 200 199 198 201 202 996 182 181 180 179 178 177 176 175 174 173 170 171 172 161 160 159 185 184 183 196 195 187 186 241 242 240 238 239 189 188 194 197 193 192 190 191 237 236 235 233 234 221 218 219 220 222 223 224 225 226 227 228 229 230 232 231 264 263 246 245 244 243 251 252 995 156 157 158 162 163 164 167 168 169 166 165 155 154 153 151 150 149 152 142 141 140 139 145 143 144 148 146 147 126 121 120 122 123 119 117 116 118 106 105 103 104 124 125 127 128 129 130 131 132 137 138 135 136 76 75 74 52 53 51 50 40 39 38 37 36 35 34 33 32 62 63 64 65 61 60 59 58 57 55 54 72 73 71 -1
EOF